p edge 16 38
v 1 5
v 2 240
v 3 50
v 4 5
v 5 85
v 6 124
v 7 5
v 8 240
v 9 85
v 10 230
v 11 124
v 12 25
v 13 50
v 14 5
v 15 230
v 16 25
e 1 2
e 1 3
e 1 9
e 1 11
e 1 14
e 2 3
e 2 5
e 2 15
e 3 7
e 3 10
e 3 12
e 4 5
e 4 6
e 4 7
e 4 8
e 4 13
e 5 6
e 5 7
e 5 15
e 6 7
e 6 16
e 7 10
e 7 12
e 8 9
e 8 10
e 8 13
e 9 10
e 9 11
e 9 14
e 10 12
e 11 12
e 11 14
e 13 14
e 13 15
e 13 16
e 14 15
e 14 16
e 15 16
